sat
(model 
  (define-fun x3 () Int
    2)
  (define-fun x2 () Int
    2)
  (define-fun x1 () Int
    0)
  (define-fun x4 () Int
    2)
  (define-fun x5 () Int
    2)
)
sat
(model 
  (define-fun x5 () Int
    2)
  (define-fun x4 () Int
    2)
  (define-fun x3 () Int
    2)
  (define-fun x2 () Int
    2)
  (define-fun x1 () Int
    0)
)
